DIR: 0.2620146314439963, EFF: 0.4392977276858791, INT: 0.010344181452095598, OBJ: 0.288343459418029
original problem has 2690 variables (1328 bin, 0 int, 0 impl, 1362 cont) and 1404 constraints
1/1 feasible solution given by solution candidate storage, new primal bound 1.168000e+03

presolving:
   (0.0s) running MILP presolver
   (0.1s) MILP presolver (2 rounds): 3 aggregations, 0 fixings, 0 bound changes
   (1.4s) probing: 1000/1325 (75.5%) - 0 fixings, 0 aggregations, 52690 implications, 0 bound changes
   (1.4s) probing: 1001/1325 (75.5%) - 0 fixings, 0 aggregations, 52758 implications, 0 bound changes
   (1.4s) probing aborted: 1000/1000 successive useless probings
presolving (1 rounds: 1 fast, 1 medium, 1 exhaustive):
 3 deleted vars, 3 deleted constraints, 0 added constraints, 0 tightened bounds, 0 added holes, 0 changed sides, 0 changed coefficients
 52793 implications, 43 cliques
presolved problem has 2687 variables (1325 bin, 0 int, 0 impl, 1362 cont) and 1401 constraints
   1219 constraints of type <varbound>
    182 constraints of type <linear>
transformed objective value is always integral (scale: 1)
Presolving Time: 1.39
transformed 1/1 original solutions to the transformed problem space

 time | node  | left  |LP iter|LP it/n|mem/heur|mdpt |vars |cons |rows |cuts |sepa|confs|strbr|  dualbound   | primalbound  |  gap   | compl. 
  1.6s|     1 |     0 |  1455 |     - |    27M |   0 |2687 |1401 |1401 |   0 |  0 |   0 |   0 | 1.005682e+03 | 1.168000e+03 |  16.14%| unknown
Computing relative interior point (time limit: 1e+20, iter limit: 14550) ...
  5.4s|     1 |     0 |  1781 |     - |    41M |   0 |2688 |1401 |1411 |  10 |  1 |   0 |   0 | 1.005682e+03 | 1.168000e+03 |  16.14%| unknown
  5.4s|     1 |     0 |  1781 |     - |    41M |   0 |2688 |1401 |1411 |  10 |  1 |   0 |   0 | 1.019171e+03 | 1.168000e+03 |  14.60%| unknown
  8.4s|     1 |     0 |  2071 |     - |    48M |   0 |2688 |1401 |1421 |  20 |  2 |   0 |   0 | 1.026810e+03 | 1.168000e+03 |  13.75%| unknown
 11.3s|     1 |     0 |  2271 |     - |    54M |   0 |2688 |1401 |1431 |  30 |  3 |   0 |   0 | 1.030691e+03 | 1.168000e+03 |  13.32%| unknown
 11.6s|     1 |     0 |  2590 |     - |    55M |   0 |2688 |1401 |1441 |  40 |  4 |   0 |   0 | 1.035620e+03 | 1.168000e+03 |  12.78%| unknown
 12.0s|     1 |     0 |  2926 |     - |    57M |   0 |2688 |1401 |1451 |  50 |  5 |   0 |   0 | 1.041398e+03 | 1.168000e+03 |  12.16%| unknown
 12.3s|     1 |     0 |  3086 |     - |    57M |   0 |2688 |1401 |1461 |  60 |  6 |   0 |   0 | 1.044452e+03 | 1.168000e+03 |  11.83%| unknown
 12.6s|     1 |     0 |  3293 |     - |    59M |   0 |2688 |1401 |1471 |  70 |  7 |   0 |   0 | 1.046214e+03 | 1.168000e+03 |  11.64%| unknown
 13.0s|     1 |     0 |  3577 |     - |    60M |   0 |2688 |1401 |1481 |  80 |  8 |   0 |   0 | 1.049764e+03 | 1.168000e+03 |  11.26%| unknown
 13.4s|     1 |     0 |  4029 |     - |    60M |   0 |2688 |1401 |1491 |  90 |  9 |   0 |   0 | 1.054154e+03 | 1.168000e+03 |  10.80%| unknown
 13.7s|     1 |     0 |  4131 |     - |    61M |   0 |2688 |1401 |1501 | 100 | 10 |   0 |   0 | 1.055238e+03 | 1.168000e+03 |  10.69%| unknown
 14.0s|     1 |     0 |  4313 |     - |    62M |   0 |2688 |1401 |1510 | 110 | 11 |   0 |   0 | 1.056793e+03 | 1.168000e+03 |  10.52%| unknown
 14.3s|     1 |     0 |  4448 |     - |    63M |   0 |2688 |1401 |1520 | 120 | 12 |   0 |   0 | 1.057602e+03 | 1.168000e+03 |  10.44%| unknown
 14.7s|     1 |     0 |  4583 |     - |    63M |   0 |2688 |1401 |1530 | 130 | 13 |   0 |   0 | 1.058771e+03 | 1.168000e+03 |  10.32%| unknown
 time | node  | left  |LP iter|LP it/n|mem/heur|mdpt |vars |cons |rows |cuts |sepa|confs|strbr|  dualbound   | primalbound  |  gap   | compl. 
 15.1s|     1 |     0 |  4752 |     - |    65M |   0 |2688 |1401 |1540 | 140 | 14 |   0 |   0 | 1.060823e+03 | 1.168000e+03 |  10.10%| unknown
 15.5s|     1 |     0 |  4921 |     - |    67M |   0 |2688 |1401 |1550 | 150 | 15 |   0 |   0 | 1.062612e+03 | 1.168000e+03 |   9.92%| unknown
 15.9s|     1 |     0 |  5098 |     - |    70M |   0 |2688 |1401 |1560 | 160 | 16 |   0 |   0 | 1.063717e+03 | 1.168000e+03 |   9.80%| unknown
 16.5s|     1 |     0 |  5288 |     - |    71M |   0 |2688 |1401 |1560 | 170 | 17 |   0 |   0 | 1.064871e+03 | 1.168000e+03 |   9.68%| unknown
 17.0s|     1 |     0 |  5490 |     - |    71M |   0 |2688 |1401 |1570 | 180 | 18 |   0 |   0 | 1.066067e+03 | 1.168000e+03 |   9.56%| unknown
 17.5s|     1 |     0 |  5601 |     - |    74M |   0 |2688 |1401 |1580 | 190 | 19 |   0 |   0 | 1.067666e+03 | 1.168000e+03 |   9.40%| unknown
 18.0s|     1 |     0 |  5743 |     - |    75M |   0 |2688 |1401 |1589 | 199 | 20 |   0 |   0 | 1.068319e+03 | 1.168000e+03 |   9.33%| unknown
 18.5s|     1 |     0 |  5944 |     - |    77M |   0 |2688 |1401 |1599 | 209 | 21 |   0 |   0 | 1.068739e+03 | 1.168000e+03 |   9.29%| unknown
 19.1s|     1 |     0 |  6099 |     - |    77M |   0 |2688 |1401 |1609 | 219 | 22 |   0 |   0 | 1.069767e+03 | 1.168000e+03 |   9.18%| unknown
 19.7s|     1 |     0 |  6234 |     - |    78M |   0 |2688 |1401 |1580 | 229 | 23 |   0 |   0 | 1.070329e+03 | 1.168000e+03 |   9.13%| unknown
 20.4s|     1 |     0 |  6475 |     - |    79M |   0 |2688 |1401 |1590 | 239 | 24 |   0 |   0 | 1.071789e+03 | 1.168000e+03 |   8.98%| unknown
 21.0s|     1 |     0 |  6634 |     - |    81M |   0 |2688 |1401 |1600 | 249 | 25 |   0 |   0 | 1.073173e+03 | 1.168000e+03 |   8.84%| unknown
 21.7s|     1 |     0 |  6898 |     - |    82M |   0 |2688 |1401 |1610 | 259 | 26 |   0 |   0 | 1.075132e+03 | 1.168000e+03 |   8.64%| unknown
 22.3s|     1 |     0 |  7052 |     - |    83M |   0 |2688 |1401 |1620 | 269 | 27 |   0 |   0 | 1.076100e+03 | 1.168000e+03 |   8.54%| unknown
 22.9s|     1 |     0 |  7190 |     - |    85M |   0 |2688 |1401 |1630 | 279 | 28 |   0 |   0 | 1.076444e+03 | 1.168000e+03 |   8.51%| unknown
 time | node  | left  |LP iter|LP it/n|mem/heur|mdpt |vars |cons |rows |cuts |sepa|confs|strbr|  dualbound   | primalbound  |  gap   | compl. 
 23.6s|     1 |     0 |  7461 |     - |    85M |   0 |2688 |1401 |1610 | 289 | 29 |   0 |   0 | 1.077261e+03 | 1.168000e+03 |   8.42%| unknown
 24.2s|     1 |     0 |  7699 |     - |    88M |   0 |2688 |1401 |1620 | 299 | 30 |   0 |   0 | 1.078313e+03 | 1.168000e+03 |   8.32%| unknown
 24.7s|     1 |     0 |  7875 |     - |    91M |   0 |2688 |1401 |1630 | 309 | 31 |   0 |   0 | 1.078933e+03 | 1.168000e+03 |   8.26%| unknown
 25.4s|     1 |     0 |  8085 |     - |    93M |   0 |2688 |1401 |1640 | 319 | 32 |   0 |   0 | 1.079856e+03 | 1.168000e+03 |   8.16%| unknown
 26.0s|     1 |     0 |  8205 |     - |    93M |   0 |2688 |1401 |1650 | 329 | 33 |   0 |   0 | 1.080599e+03 | 1.168000e+03 |   8.09%| unknown
 26.7s|     1 |     0 |  8382 |     - |    95M |   0 |2688 |1401 |1660 | 339 | 34 |   0 |   0 | 1.081249e+03 | 1.168000e+03 |   8.02%| unknown
 27.5s|     1 |     0 |  8571 |     - |    95M |   0 |2688 |1401 |1635 | 349 | 35 |   0 |   0 | 1.081517e+03 | 1.168000e+03 |   8.00%| unknown
 28.3s|     1 |     0 |  8777 |     - |    97M |   0 |2688 |1401 |1645 | 359 | 36 |   0 |   0 | 1.082205e+03 | 1.168000e+03 |   7.93%| unknown
 29.1s|     1 |     0 |  8950 |     - |    99M |   0 |2688 |1401 |1655 | 369 | 37 |   0 |   0 | 1.082557e+03 | 1.168000e+03 |   7.89%| unknown
 30.0s|     1 |     0 |  9183 |     - |   100M |   0 |2688 |1401 |1665 | 379 | 38 |   0 |   0 | 1.083317e+03 | 1.168000e+03 |   7.82%| unknown
 30.9s|     1 |     0 |  9502 |     - |   100M |   0 |2688 |1401 |1675 | 389 | 39 |   0 |   0 | 1.084026e+03 | 1.168000e+03 |   7.75%| unknown
 31.7s|     1 |     0 |  9628 |     - |   103M |   0 |2688 |1401 |1685 | 399 | 40 |   0 |   0 | 1.084318e+03 | 1.168000e+03 |   7.72%| unknown
 32.5s|     1 |     0 |  9792 |     - |   105M |   0 |2688 |1401 |1639 | 409 | 41 |   0 |   0 | 1.084737e+03 | 1.168000e+03 |   7.68%| unknown
 33.5s|     1 |     0 |  9966 |     - |   106M |   0 |2688 |1401 |1649 | 419 | 42 |   0 |   0 | 1.084982e+03 | 1.168000e+03 |   7.65%| unknown
 34.3s|     1 |     0 | 10096 |     - |   106M |   0 |2688 |1401 |1659 | 429 | 43 |   0 |   0 | 1.085359e+03 | 1.168000e+03 |   7.61%| unknown
 time | node  | left  |LP iter|LP it/n|mem/heur|mdpt |vars |cons |rows |cuts |sepa|confs|strbr|  dualbound   | primalbound  |  gap   | compl. 
 35.2s|     1 |     0 | 10204 |     - |   106M |   0 |2688 |1401 |1669 | 439 | 44 |   0 |   0 | 1.085521e+03 | 1.168000e+03 |   7.60%| unknown
 36.2s|     1 |     0 | 10395 |     - |   106M |   0 |2688 |1401 |1679 | 449 | 45 |   0 |   0 | 1.085697e+03 | 1.168000e+03 |   7.58%| unknown
 37.1s|     1 |     0 | 10529 |     - |   108M |   0 |2688 |1401 |1689 | 459 | 46 |   0 |   0 | 1.085861e+03 | 1.168000e+03 |   7.56%| unknown
 38.2s|     1 |     0 | 10758 |     - |   108M |   0 |2688 |1401 |1646 | 469 | 47 |   0 |   0 | 1.086264e+03 | 1.168000e+03 |   7.52%| unknown
 38.5s|     1 |     0 | 10937 |     - |   108M |   0 |2688 |1401 |1656 | 479 | 48 |   0 |   0 | 1.086566e+03 | 1.168000e+03 |   7.49%| unknown
 38.7s|     1 |     0 | 11178 |     - |   108M |   0 |2688 |1401 |1666 | 489 | 49 |   0 |   0 | 1.086885e+03 | 1.168000e+03 |   7.46%| unknown
 38.9s|     1 |     0 | 11400 |     - |   108M |   0 |2688 |1401 |1676 | 499 | 50 |   0 |   0 | 1.087361e+03 | 1.168000e+03 |   7.42%| unknown
 38.9s|     1 |     2 | 11400 |     - |   108M |   0 |2688 |1401 |1676 | 499 | 50 |   0 |   0 | 1.087361e+03 | 1.168000e+03 |   7.42%| unknown

SCIP Status        : solving was interrupted [node limit reached]
Solving Time (sec) : 38.92
Solving Nodes      : 1
Primal Bound       : +1.16800000000000e+03 (1 solutions)
Dual Bound         : +1.08736147172573e+03
Gap                : 7.42 %
